NAME          
ROWS
 N  OBJ
 L  c1
COLUMNS
    MARKER    'MARKER'                 'INTORG'
    x         OBJ       1
    MARKER    'MARKER'                 'INTEND'
    y         c1        1
    y         OBJ       1
RHS
    rhs       c1        -1
RANGES
BOUNDS
 LO bounds    x         1.1
 PL bounds    x
 LO bounds    y         0
 PL bounds    y
ENDATA
